objective value:                                   -4
t_n_15                                              1 	(obj:-1)
t_n_694                                             1 	(obj:-1)
t_n_762                                             1 	(obj:-1)
t_n_892                                             1 	(obj:-1)
